NAME : XML100_2333_22
DIMENSION : 101
NB_CLUSTERS : 7
CLUSTERING_ALG : DBSCAN
CLUSTERING_PARAMS : eps(120), minSamples(3)
CLUSTERS
1 0
2 1 4 7 8 9 12 14 15 16 18 21 22 23 28 29 30 31 32 33 35 36 41 42 43 47 49 50 52 53 55 58 61 63 67 68 69 71 73 74 75 76 78 88 90 91 92 93 96 99
3 2 5 10 11 19 20 24 25 26 37 38 39 44 51 54 60 64 65 72 81 82 83 84 86 89 94 95
4 3 6 40 57 59 97 100
5 17 48 79
6 27 46 56 66 80 85
7 13 34 45 62 70 77 87 98
EOF